c CNF file corresponding to a (partial) station packing problem.
p cnf 1139 171
1 2 3 4 5 6 7 8 9 10 11 12 13 14 0
-1 -2 0
-1 -3 0
-1 -4 0
-1 -5 0
-1 -6 0
-1 -7 0
-1 -8 0
-1 -9 0
-1 -10 0
-1 -11 0
-1 -12 0
-1 -13 0
-1 -14 0
-2 -3 0
-2 -4 0
-2 -5 0
-2 -6 0
-2 -7 0
-2 -8 0
-2 -9 0
-2 -10 0
-2 -11 0
-2 -12 0
-2 -13 0
-2 -14 0
-3 -4 0
-3 -5 0
-3 -6 0
-3 -7 0
-3 -8 0
-3 -9 0
-3 -10 0
-3 -11 0
-3 -12 0
-3 -13 0
-3 -14 0
-4 -5 0
-4 -6 0
-4 -7 0
-4 -8 0
-4 -9 0
-4 -10 0
-4 -11 0
-4 -12 0
-4 -13 0
-4 -14 0
-5 -6 0
-5 -7 0
-5 -8 0
-5 -9 0
-5 -10 0
-5 -11 0
-5 -12 0
-5 -13 0
-5 -14 0
-6 -7 0
-6 -8 0
-6 -9 0
-6 -10 0
-6 -11 0
-6 -12 0
-6 -13 0
-6 -14 0
-7 -8 0
-7 -9 0
-7 -10 0
-7 -11 0
-7 -12 0
-7 -13 0
-7 -14 0
-8 -9 0
-8 -10 0
-8 -11 0
-8 -12 0
-8 -13 0
-8 -14 0
-9 -10 0
-9 -11 0
-9 -12 0
-9 -13 0
-9 -14 0
-10 -11 0
-10 -12 0
-10 -13 0
-10 -14 0
-11 -12 0
-11 -13 0
-11 -14 0
-12 -13 0
-12 -14 0
-13 -14 0
1127 1128 1129 1130 1131 1132 1133 1134 1135 1136 1137 1138 1139 0
-1127 -1128 0
-1127 -1129 0
-1127 -1130 0
-1127 -1131 0
-1127 -1132 0
-1127 -1133 0
-1127 -1134 0
-1127 -1135 0
-1127 -1136 0
-1127 -1137 0
-1127 -1138 0
-1127 -1139 0
-1128 -1129 0
-1128 -1130 0
-1128 -1131 0
-1128 -1132 0
-1128 -1133 0
-1128 -1134 0
-1128 -1135 0
-1128 -1136 0
-1128 -1137 0
-1128 -1138 0
-1128 -1139 0
-1129 -1130 0
-1129 -1131 0
-1129 -1132 0
-1129 -1133 0
-1129 -1134 0
-1129 -1135 0
-1129 -1136 0
-1129 -1137 0
-1129 -1138 0
-1129 -1139 0
-1130 -1131 0
-1130 -1132 0
-1130 -1133 0
-1130 -1134 0
-1130 -1135 0
-1130 -1136 0
-1130 -1137 0
-1130 -1138 0
-1130 -1139 0
-1131 -1132 0
-1131 -1133 0
-1131 -1134 0
-1131 -1135 0
-1131 -1136 0
-1131 -1137 0
-1131 -1138 0
-1131 -1139 0
-1132 -1133 0
-1132 -1134 0
-1132 -1135 0
-1132 -1136 0
-1132 -1137 0
-1132 -1138 0
-1132 -1139 0
-1133 -1134 0
-1133 -1135 0
-1133 -1136 0
-1133 -1137 0
-1133 -1138 0
-1133 -1139 0
-1134 -1135 0
-1134 -1136 0
-1134 -1137 0
-1134 -1138 0
-1134 -1139 0
-1135 -1136 0
-1135 -1137 0
-1135 -1138 0
-1135 -1139 0
-1136 -1137 0
-1136 -1138 0
-1136 -1139 0
-1137 -1138 0
-1137 -1139 0
-1138 -1139 0
